
  32   50
   8    4   10   11   13   14    9    8   14    5   10   13    9    9   10    2   13    9    4   10    9   26    8    7    4   17   17    6    8   11    7    7    0    0    0    0    0    0    0    0    0    0    0    0    0    0    0    0    0    0

   0   0   0   0   0   0   0   0   0   0   0   0   0   0   0   0   0   0   0   0   0   0   0   0   0   0   0   0   0   0   0   0   0   0   0   0   0   0   0   0   0   0   0   0   0   0   0   0   0   0   0  10 2 3 4 5 6 7 9 10 12 15 
   2   1   0   0   0   0   0   0   8   5   0   0   0   0   0   0   0   0   0   0   5   0   3   0   3   0   5   0   0   0   5   1   0   0   0   0   0   0   0   0   0   0   0   0   0   0   0   0   0   0   0  10 31 30 29 28 22 21 17 16 14 13 
   7   0   0   0   0   0   0   0   0   0   0   0   0   0   0   0   0   0   0   0   0   0   0   0   0   0   0   0   0   6   0   0   0   0   0   0   0   0   0   0   0   0   0   0   0   0   0   0   0   0   0   7 31 29 22 21 16 13 11 
   2   0   0   0   0   0   0   0   0   7   4   0   0   0   0   0   0   0   0   3   0   0   0   0   0   0   0   0   0   0   0   0   0   0   0   0   0   0   0   0   0   0   0   0   0   0   0   0   0   0   0   7 31 30 28 21 19 17 13 
   7   0   0   0   9   0   0   0   0   0   0   0   0   0   0   0   0   0   0   0   0   0   0   0   0   0   0   0   0   0   0   0   0   0   0   0   0   0   0   0   0   0   0   0   0   0   0   0   0   0   0   4 29 19 13 8 
   2   0   0   0   0   0   0   0   0   0   0   3   0   0   0   6   2   7   9   0   0   0   0   0   0   0   0   0   0   0   0   0   0   0   0   0   0   0   0   0   0   0   0   0   0   0   0   0   0   0   0   7 29 28 27 23 22 20 18 
   4   0   0   0   0   5   0   7   0   0   0   0   0   0   0   0   0   0   0   0   0   0   8   0   0   4   0   0   0   0   0   0   0   0   0   0   0   0   0   0   0   0   0   0   0   0   0   0   0   0   0   4 28 25 19 13 
   3   0   0   0   0   0   0   0   0   0   5   0   0   5   6   0   0   0   0   0   9   0   0   0   0   0   0   0   0   0   0   0   0   0   0   0   0   0   0   0   0   0   0   0   0   0   0   0   0   0   0   5 28 27 25 21 20 
   9   0   0   0   0   0   0   0   0   0   0   0   0   0   0   0   0   0   0   0   0   7   0   0   0   0   0   0   0   0   0   0   0   0   0   0   0   0   0   0   0   0   0   0   0   0   0   0   0   0   0   5 29 27 26 25 19 
   1   0   0   0   0   0   0   0   0   4   0   0   0   0   0   0   0   9   0   0   0   1   7   0   0   0   0   6   0   0   0   0   0   0   0   0   0   0   0   0   0   0   0   0   0   0   0   0   0   0   0   3 28 19 13 
   8   0   0   0   0   0  10   0   0   0   0   0   4   0   0   0   0   0   0   0   0   0   0   0   0   0   3   0   0   0   0   3   0   0   0   0   0   0   0   0   0   0   0   0   0   0   0   0   0   0   0   5 30 28 27 25 23 
   5   8   0  10   0   0   0   0   0   2   0   0   0   0   0   0   0   0   0   0   0   0   8   0   0   0   0   0   0   0   0   0   0   0   0   0   0   0   0   0   0   0   0   0   0   0   0   0   0   0   0   2 18 16 
   1   0   0   0   0   0   0   0   0   0   0   0   0   0   0   0   0   0   0   0   1   0   0   1   0   0   0   0   3   0   6   0   0   0   0   0   0   0   0   0   0   0   0   0   0   0   0   0   0   0   0   3 27 26 20 
   1   0   0   0   0   0   0   0   0   0   0   0   0   0   0   1   0   0   0   0   0   0   9   0   0   0   0   0   0   0   0   0   1   0   0   0   0   0   0   0   0   0   0   0   0   0   0   0   0   0   0   2 25 19 
   1   0   0   0   4   0   0   0   0   0   0   0   3   2   0   0   0   0   0   0   0   0  10   0   0   0   0   0   0   0   0   0   0   0   0   0   0   0   0   0   0   0   0   0   0   0   0   0   0   0   0   3 30 25 24 
   3   0   0   0   6   0   0   0   4   8   0   0   0   0   0   0   0   0   0   0   0   0   0   0   0   0   0   0   0   0   7   0   0   0   0   0   0   0   0   0   0   0   0   0   0   0   0   0   0   0   0   2 25 20 
   7   0   0   0   0  10   0   0   0   0   0   3   0   0   0   0   0   0   0   0   0   4  10   0   1   0   0   5   0   0   0   0   7   0   0   0   0   0   0   0   0   0   0   0   0   0   0   0   0   0   0   2 25 20 
   1   0   4   0   1   0   0   9   0   0   0   9   0   0   0  10   0   0   9   0   0   0   0   0   0   0   0   0   0   0   0   0   0   0   0   0   0   0   0   0   0   0   0   0   0   0   0   0   0   0   0   2 26 24 
   5   4   0   0   0   0   0   0   0   0   0   0   0   0   6   0   0   0   0   0   0   0   0   8   0   0   4   0   0   0   0   0   0   0   0   0   0   0   0   0   0   0   0   0   0   0   0   0   0   0   0   1 20 
   3   0   0   4   0   0   0   6   0   0   2   0   0   0   0   0   0   0   0   0   0   0   0   0   0   0   0   0   0   0   0   0   0   0   0   0   0   0   0   0   0   0   0   0   0   0   0   0   0   0   0   1 24 
   8   0   0   0   0   0   7   0   0   1   0   0   6   9   0   0   0   0   0   4   0   0   0   0   0   0   0   0   0   0   0   0   0   0   0   0   0   0   0   0   0   0   0   0   0   0   0   0   0   0   0   1 26 
   5   0   0   0   0   0   0   0   0   0   0   8   7   0   0   0   2   0   9   0   0   0   0   0   6   0   0   7   5   0   0   6   0   0   0   0   0   0   0   0   0   0   0   0   0   0   0   0   0   0   0   1 25 
   2   0   2   0   0   0   5   1   0   0   0   0   0   0   0   0   0   0   0   0   0   0   4   0   0   0   2   0   0   0   0   0   0   0   0   0   0   0   0   0   0   0   0   0   0   0   0   0   0   0   0   1 24 
   1   2   0   1   0   0   0   0   0   0   0   0   0   0   0   0   0   0   0   0   0   0   8   0   0   1   0   0   0   0   0   0   0   0   0   0   0   0   0   0   0   0   0   0   0   0   0   0   0   0   0   1 32
   2   0   0   0   8   0   0   0   0   0   2   0   0   0   0   0   1   0   0   0   0   0   0   0   0   0   0   0   0   0   0   0   7   0   0   0   0   0   0   0   0   0   0   0   0   0   0   0   0   0   0   1 32
   5   6   0   0   0   0   2   0   0   0   0   0   0   0   0   5   0   3   0   0   0   0   0   6   0   0   0   0   0   0  10   0   0   0   0   0   0   0   0   0   0   0   0   0   0   0   0   0   0   0   0   1 32
   7   0   0   5   0   0   0   0   0   0   0   0   0   0   0   0   0   0   0   0   0   0   0   0   7   4  10   0   0   0   0   0   0   0   0   0   0   0   0   0   0   0   0   0   0   0   0   0   0   0   0   1 32
   6   0   0   0   0   0   3   0   0   0   0   0   0   0   0   0   0   0   0   0   0   0   0   0   0   0   7  10   0   0   0   0   0   0   0   0   0   0   0   0   0   0   0   0   0   0   0   0   0   0   0   1 32
   5   0   0   0   0   0   0   0   0   0   0   1   0   0   0   0   0   0   0   0   0   6   0   0   2   0   0   0   0   8   0   0   1   0   0   0   0   0   0   0   0   0   0   0   0   0   0   0   0   0   0   1 32
   7   0   0   0   5   0   0   3   0   0   0   0   0   0   0   0   0   0   0   0   0   3   0   0   0   0   3   0   0   0   2   0   0   0   0   0   0   0   0   0   0   0   0   0   0   0   0   0   0   0   0   1 32
   2   0   0   0   0   0   0   0   0   0   0   0   0   0   0   0   0   0   0   0   2   0   0   0   1   0   0   9   0   0   0   0   0   0   0   0   0   0   0   0   0   0   0   0   0   0   0   0   0   0   0   1 32
   0   0   0   0   0   0   0   0   0   0   0   0   0   0   0   0   0   0   0   0   0   0   0   0   0   0   0   0   0   0   0   0   0   0   0   0   0   0   0   0   0   0   0   0   0   0   0   0   0   0   0   0 
